; benchmark generated from python API
(set-info :status unknown)
(declare-datatypes ((IntState 0)) (((Mk1 (val1 Int)) (Mk2 (val2 Int)))))
 (declare-fun |c_hanoi_#t~ret0| () Int)
(declare-fun |c_hanoi_#in~n| () Int)
(declare-fun c_hanoi_~n () Int)
(assert
 (let (($x156 (exists ((v_nnf_52_st IntState) (val!172 Int) )(let (($x51 (<= |c_hanoi_#in~n| 3)))
 (let (($x167 (and $x51 (<= 1 (val2 v_nnf_52_st)) (<= (+ (* 2 (val2 v_nnf_52_st)) 1) |c_hanoi_#t~ret0|))))
 (let (($x52 (not (= v_nnf_52_st (Mk1 val!172)))))
 (and $x52 $x167)))))
 ))
 (let (($x111 (<= |c_hanoi_#in~n| c_hanoi_~n)))
 (let (($x45 (exists ((v_nnf_51 Int) )(let (($x111 (<= |c_hanoi_#in~n| c_hanoi_~n)))
 (let (($x66 (<= 1 v_nnf_51)))
 (let (($x170 (<= (+ (* 2 v_nnf_51) 1) |c_hanoi_#t~ret0|)))
 (let (($x102 (<= c_hanoi_~n 3)))
 (and $x102 $x170 $x66 $x111))))))
 ))
 (and $x45 (not (and $x111 $x156)))))))
(check-sat)
